p cnf 7230 16
6869 -6912 0
6871 -6914 0
6869 -6918 0
-4572 -6912 -6917 0
6871 -6916 0
-4570 -6914 -6915 0
6913 6914 0
-6871 -6913 0
6911 6912 0
-6869 -6911 0
6917 6918 0
6915 6916 0
4572 -6918 0
4570 -6916 0
6879 -6920 0
3880 -6920 0
